Cars = 1..200;
Options = 1..5;
Classes = 1..27;
sequenceMinCapacity = [0, 0, 0, 0, 0];
sequenceMaxCapacity = [1, 2, 1, 2, 1];
sequenceSize = [2, 3, 3, 5, 5];
numOrdered = [7, 1, 20, 6, 12, 18, 6, 13, 29, 7, 1, 6, 1, 4, 2, 18, 6, 1, 7, 3, 2, 13, 1, 3, 5, 1, 7];
classHasOption = [|false,  true,  true,  true, false
                  |false, false,  true, false,  true
                  | true,  true, false, false, false
                  | true,  true, false,  true, false
                  | true, false, false,  true, false
                  | true, false, false, false, false
                  | true, false,  true, false, false
                  |false,  true,  true, false, false
                  |false,  true, false, false, false
                  | true,  true,  true, false, false
                  | true, false,  true,  true, false
                  |false, false,  true, false, false
                  | true,  true,  true, false,  true
                  |false, false,  true,  true, false
                  |false, false, false,  true,  true
                  |false,  true, false,  true, false
                  |false, false, false, false,  true
                  | true, false,  true, false,  true
                  | true, false, false, false,  true
                  |false,  true,  true, false,  true
                  |false,  true,  true,  true,  true
                  |false, false, false,  true, false
                  |false,  true, false,  true,  true
                  | true,  true,  true, false, false
                  |false,  true, false, false,  true
                  | true, false, false, false, false
                  | true, false, false, false, false|];
optionOrdering = [1, 3, 5, 4, 2];
